language Essence 1.3

letting codeWordLength be 23
letting dist be
        function((1, 1) --> 0, (1, 2) --> 1, (1, 3) --> 1, (1, 4) --> 2, (1, 5) --> 2, (1, 6) --> 2, (1, 7) --> 1,
                 (1, 8) --> 2, (1, 9) --> 1, (1, 10) --> 2, (1, 11) --> 2, (1, 12) --> 0, (1, 13) --> 2, (1, 14) --> 1,
                 (1, 15) --> 0, (1, 16) --> 0, (1, 17) --> 1, (1, 18) --> 2, (1, 19) --> 1, (1, 20) --> 2,
                 (1, 21) --> 2, (1, 22) --> 2, (1, 23) --> 0, (1, 24) --> 0, (1, 25) --> 0, (1, 26) --> 0,
                 (1, 27) --> 1, (1, 28) --> 0, (1, 29) --> 1, (2, 1) --> 1, (2, 2) --> 0, (2, 3) --> 1, (2, 4) --> 2,
                 (2, 5) --> 0, (2, 6) --> 0, (2, 7) --> 1, (2, 8) --> 0, (2, 9) --> 2, (2, 10) --> 0, (2, 11) --> 2,
                 (2, 12) --> 2, (2, 13) --> 2, (2, 14) --> 2, (2, 15) --> 1, (2, 16) --> 2, (2, 17) --> 2,
                 (2, 18) --> 2, (2, 19) --> 2, (2, 20) --> 0, (2, 21) --> 2, (2, 22) --> 2, (2, 23) --> 0,
                 (2, 24) --> 2, (2, 25) --> 2, (2, 26) --> 1, (2, 27) --> 2, (2, 28) --> 1, (2, 29) --> 0, (3, 1) --> 1,
                 (3, 2) --> 1, (3, 3) --> 0, (3, 4) --> 1, (3, 5) --> 1, (3, 6) --> 2, (3, 7) --> 2, (3, 8) --> 2,
                 (3, 9) --> 1, (3, 10) --> 0, (3, 11) --> 0, (3, 12) --> 0, (3, 13) --> 2, (3, 14) --> 2, (3, 15) --> 1,
                 (3, 16) --> 2, (3, 17) --> 0, (3, 18) --> 2, (3, 19) --> 2, (3, 20) --> 1, (3, 21) --> 2,
                 (3, 22) --> 0, (3, 23) --> 0, (3, 24) --> 2, (3, 25) --> 0, (3, 26) --> 0, (3, 27) --> 0,
                 (3, 28) --> 1, (3, 29) --> 1, (4, 1) --> 2, (4, 2) --> 2, (4, 3) --> 1, (4, 4) --> 0, (4, 5) --> 0,
                 (4, 6) --> 1, (4, 7) --> 2, (4, 8) --> 0, (4, 9) --> 1, (4, 10) --> 1, (4, 11) --> 0, (4, 12) --> 1,
                 (4, 13) --> 2, (4, 14) --> 0, (4, 15) --> 0, (4, 16) --> 1, (4, 17) --> 0, (4, 18) --> 0,
                 (4, 19) --> 1, (4, 20) --> 0, (4, 21) --> 0, (4, 22) --> 0, (4, 23) --> 1, (4, 24) --> 2,
                 (4, 25) --> 0, (4, 26) --> 0, (4, 27) --> 1, (4, 28) --> 0, (4, 29) --> 0, (5, 1) --> 2, (5, 2) --> 0,
                 (5, 3) --> 1, (5, 4) --> 0, (5, 5) --> 0, (5, 6) --> 2, (5, 7) --> 1, (5, 8) --> 2, (5, 9) --> 1,
                 (5, 10) --> 1, (5, 11) --> 0, (5, 12) --> 2, (5, 13) --> 2, (5, 14) --> 2, (5, 15) --> 2,
                 (5, 16) --> 1, (5, 17) --> 2, (5, 18) --> 1, (5, 19) --> 1, (5, 20) --> 2, (5, 21) --> 0,
                 (5, 22) --> 1, (5, 23) --> 1, (5, 24) --> 1, (5, 25) --> 2, (5, 26) --> 2, (5, 27) --> 0,
                 (5, 28) --> 1, (5, 29) --> 0, (6, 1) --> 2, (6, 2) --> 0, (6, 3) --> 2, (6, 4) --> 1, (6, 5) --> 2,
                 (6, 6) --> 0, (6, 7) --> 2, (6, 8) --> 1, (6, 9) --> 0, (6, 10) --> 2, (6, 11) --> 0, (6, 12) --> 2,
                 (6, 13) --> 0, (6, 14) --> 2, (6, 15) --> 2, (6, 16) --> 0, (6, 17) --> 1, (6, 18) --> 1,
                 (6, 19) --> 1, (6, 20) --> 2, (6, 21) --> 2, (6, 22) --> 2, (6, 23) --> 0, (6, 24) --> 2,
                 (6, 25) --> 0, (6, 26) --> 0, (6, 27) --> 2, (6, 28) --> 2, (6, 29) --> 0, (7, 1) --> 1, (7, 2) --> 1,
                 (7, 3) --> 2, (7, 4) --> 2, (7, 5) --> 1, (7, 6) --> 2, (7, 7) --> 0, (7, 8) --> 2, (7, 9) --> 2,
                 (7, 10) --> 1, (7, 11) --> 2, (7, 12) --> 2, (7, 13) --> 1, (7, 14) --> 0, (7, 15) --> 2,
                 (7, 16) --> 1, (7, 17) --> 0, (7, 18) --> 1, (7, 19) --> 1, (7, 20) --> 2, (7, 21) --> 2,
                 (7, 22) --> 1, (7, 23) --> 0, (7, 24) --> 2, (7, 25) --> 2, (7, 26) --> 1, (7, 27) --> 0,
                 (7, 28) --> 0, (7, 29) --> 0, (8, 1) --> 2, (8, 2) --> 0, (8, 3) --> 2, (8, 4) --> 0, (8, 5) --> 2,
                 (8, 6) --> 1, (8, 7) --> 2, (8, 8) --> 0, (8, 9) --> 1, (8, 10) --> 2, (8, 11) --> 1, (8, 12) --> 2,
                 (8, 13) --> 2, (8, 14) --> 0, (8, 15) --> 2, (8, 16) --> 1, (8, 17) --> 0, (8, 18) --> 0,
                 (8, 19) --> 0, (8, 20) --> 1, (8, 21) --> 0, (8, 22) --> 2, (8, 23) --> 1, (8, 24) --> 2,
                 (8, 25) --> 2, (8, 26) --> 2, (8, 27) --> 2, (8, 28) --> 2, (8, 29) --> 0, (9, 1) --> 1, (9, 2) --> 2,
                 (9, 3) --> 1, (9, 4) --> 1, (9, 5) --> 1, (9, 6) --> 0, (9, 7) --> 2, (9, 8) --> 1, (9, 9) --> 0,
                 (9, 10) --> 2, (9, 11) --> 0, (9, 12) --> 2, (9, 13) --> 1, (9, 14) --> 1, (9, 15) --> 2,
                 (9, 16) --> 1, (9, 17) --> 1, (9, 18) --> 0, (9, 19) --> 2, (9, 20) --> 0, (9, 21) --> 0,
                 (9, 22) --> 1, (9, 23) --> 1, (9, 24) --> 2, (9, 25) --> 2, (9, 26) --> 2, (9, 27) --> 0,
                 (9, 28) --> 2, (9, 29) --> 2, (10, 1) --> 2, (10, 2) --> 0, (10, 3) --> 0, (10, 4) --> 1,
                 (10, 5) --> 1, (10, 6) --> 2, (10, 7) --> 1, (10, 8) --> 2, (10, 9) --> 2, (10, 10) --> 0,
                 (10, 11) --> 1, (10, 12) --> 2, (10, 13) --> 0, (10, 14) --> 1, (10, 15) --> 0, (10, 16) --> 2,
                 (10, 17) --> 0, (10, 18) --> 1, (10, 19) --> 1, (10, 20) --> 0, (10, 21) --> 2, (10, 22) --> 1,
                 (10, 23) --> 2, (10, 24) --> 0, (10, 25) --> 2, (10, 26) --> 0, (10, 27) --> 0, (10, 28) --> 2,
                 (10, 29) --> 1, (11, 1) --> 2, (11, 2) --> 2, (11, 3) --> 0, (11, 4) --> 0, (11, 5) --> 0,
                 (11, 6) --> 0, (11, 7) --> 2, (11, 8) --> 1, (11, 9) --> 0, (11, 10) --> 1, (11, 11) --> 0,
                 (11, 12) --> 2, (11, 13) --> 2, (11, 14) --> 0, (11, 15) --> 0, (11, 16) --> 1, (11, 17) --> 1,
                 (11, 18) --> 1, (11, 19) --> 2, (11, 20) --> 1, (11, 21) --> 0, (11, 22) --> 0, (11, 23) --> 0,
                 (11, 24) --> 2, (11, 25) --> 1, (11, 26) --> 1, (11, 27) --> 1, (11, 28) --> 2, (11, 29) --> 2,
                 (12, 1) --> 0, (12, 2) --> 2, (12, 3) --> 0, (12, 4) --> 1, (12, 5) --> 2, (12, 6) --> 2,
                 (12, 7) --> 2, (12, 8) --> 2, (12, 9) --> 2, (12, 10) --> 2, (12, 11) --> 2, (12, 12) --> 0,
                 (12, 13) --> 2, (12, 14) --> 0, (12, 15) --> 0, (12, 16) --> 1, (12, 17) --> 1, (12, 18) --> 1,
                 (12, 19) --> 1, (12, 20) --> 2, (12, 21) --> 2, (12, 22) --> 1, (12, 23) --> 0, (12, 24) --> 0,
                 (12, 25) --> 2, (12, 26) --> 0, (12, 27) --> 0, (12, 28) --> 2, (12, 29) --> 0, (13, 1) --> 2,
                 (13, 2) --> 2, (13, 3) --> 2, (13, 4) --> 2, (13, 5) --> 2, (13, 6) --> 0, (13, 7) --> 1,
                 (13, 8) --> 2, (13, 9) --> 1, (13, 10) --> 0, (13, 11) --> 2, (13, 12) --> 2, (13, 13) --> 0,
                 (13, 14) --> 0, (13, 15) --> 1, (13, 16) --> 1, (13, 17) --> 2, (13, 18) --> 2, (13, 19) --> 1,
                 (13, 20) --> 0, (13, 21) --> 1, (13, 22) --> 2, (13, 23) --> 1, (13, 24) --> 0, (13, 25) --> 0,
                 (13, 26) --> 1, (13, 27) --> 0, (13, 28) --> 2, (13, 29) --> 2, (14, 1) --> 1, (14, 2) --> 2,
                 (14, 3) --> 2, (14, 4) --> 0, (14, 5) --> 2, (14, 6) --> 2, (14, 7) --> 0, (14, 8) --> 0,
                 (14, 9) --> 1, (14, 10) --> 1, (14, 11) --> 0, (14, 12) --> 0, (14, 13) --> 0, (14, 14) --> 0,
                 (14, 15) --> 2, (14, 16) --> 2, (14, 17) --> 2, (14, 18) --> 0, (14, 19) --> 1, (14, 20) --> 2,
                 (14, 21) --> 0, (14, 22) --> 0, (14, 23) --> 2, (14, 24) --> 1, (14, 25) --> 0, (14, 26) --> 2,
                 (14, 27) --> 0, (14, 28) --> 2, (14, 29) --> 2, (15, 1) --> 0, (15, 2) --> 1, (15, 3) --> 1,
                 (15, 4) --> 0, (15, 5) --> 2, (15, 6) --> 2, (15, 7) --> 2, (15, 8) --> 2, (15, 9) --> 2,
                 (15, 10) --> 0, (15, 11) --> 0, (15, 12) --> 0, (15, 13) --> 1, (15, 14) --> 2, (15, 15) --> 0,
                 (15, 16) --> 2, (15, 17) --> 2, (15, 18) --> 0, (15, 19) --> 2, (15, 20) --> 2, (15, 21) --> 2,
                 (15, 22) --> 1, (15, 23) --> 0, (15, 24) --> 2, (15, 25) --> 2, (15, 26) --> 2, (15, 27) --> 2,
                 (15, 28) --> 0, (15, 29) --> 2, (16, 1) --> 0, (16, 2) --> 2, (16, 3) --> 2, (16, 4) --> 1,
                 (16, 5) --> 1, (16, 6) --> 0, (16, 7) --> 1, (16, 8) --> 1, (16, 9) --> 1, (16, 10) --> 2,
                 (16, 11) --> 1, (16, 12) --> 1, (16, 13) --> 1, (16, 14) --> 2, (16, 15) --> 2, (16, 16) --> 0,
                 (16, 17) --> 1, (16, 18) --> 0, (16, 19) --> 2, (16, 20) --> 1, (16, 21) --> 0, (16, 22) --> 2,
                 (16, 23) --> 0, (16, 24) --> 2, (16, 25) --> 1, (16, 26) --> 1, (16, 27) --> 0, (16, 28) --> 0,
                 (16, 29) --> 2, (17, 1) --> 1, (17, 2) --> 2, (17, 3) --> 0, (17, 4) --> 0, (17, 5) --> 2,
                 (17, 6) --> 1, (17, 7) --> 0, (17, 8) --> 0, (17, 9) --> 1, (17, 10) --> 0, (17, 11) --> 1,
                 (17, 12) --> 1, (17, 13) --> 2, (17, 14) --> 2, (17, 15) --> 2, (17, 16) --> 1, (17, 17) --> 0,
                 (17, 18) --> 0, (17, 19) --> 1, (17, 20) --> 1, (17, 21) --> 0, (17, 22) --> 2, (17, 23) --> 0,
                 (17, 24) --> 0, (17, 25) --> 2, (17, 26) --> 1, (17, 27) --> 2, (17, 28) --> 2, (17, 29) --> 0,
                 (18, 1) --> 2, (18, 2) --> 2, (18, 3) --> 2, (18, 4) --> 0, (18, 5) --> 1, (18, 6) --> 1,
                 (18, 7) --> 1, (18, 8) --> 0, (18, 9) --> 0, (18, 10) --> 1, (18, 11) --> 1, (18, 12) --> 1,
                 (18, 13) --> 2, (18, 14) --> 0, (18, 15) --> 0, (18, 16) --> 0, (18, 17) --> 0, (18, 18) --> 0,
                 (18, 19) --> 2, (18, 20) --> 2, (18, 21) --> 1, (18, 22) --> 0, (18, 23) --> 2, (18, 24) --> 2,
                 (18, 25) --> 2, (18, 26) --> 2, (18, 27) --> 1, (18, 28) --> 1, (18, 29) --> 1, (19, 1) --> 1,
                 (19, 2) --> 2, (19, 3) --> 2, (19, 4) --> 1, (19, 5) --> 1, (19, 6) --> 1, (19, 7) --> 1,
                 (19, 8) --> 0, (19, 9) --> 2, (19, 10) --> 1, (19, 11) --> 2, (19, 12) --> 1, (19, 13) --> 1,
                 (19, 14) --> 1, (19, 15) --> 2, (19, 16) --> 2, (19, 17) --> 1, (19, 18) --> 2, (19, 19) --> 0,
                 (19, 20) --> 0, (19, 21) --> 0, (19, 22) --> 1, (19, 23) --> 1, (19, 24) --> 2, (19, 25) --> 1,
                 (19, 26) --> 0, (19, 27) --> 1, (19, 28) --> 2, (19, 29) --> 2, (20, 1) --> 2, (20, 2) --> 0,
                 (20, 3) --> 1, (20, 4) --> 0, (20, 5) --> 2, (20, 6) --> 2, (20, 7) --> 2, (20, 8) --> 1,
                 (20, 9) --> 0, (20, 10) --> 0, (20, 11) --> 1, (20, 12) --> 2, (20, 13) --> 0, (20, 14) --> 2,
                 (20, 15) --> 2, (20, 16) --> 1, (20, 17) --> 1, (20, 18) --> 2, (20, 19) --> 0, (20, 20) --> 0,
                 (20, 21) --> 2, (20, 22) --> 0, (20, 23) --> 0, (20, 24) --> 0, (20, 25) --> 2, (20, 26) --> 1,
                 (20, 27) --> 0, (20, 28) --> 0, (20, 29) --> 1, (21, 1) --> 2, (21, 2) --> 2, (21, 3) --> 2,
                 (21, 4) --> 0, (21, 5) --> 0, (21, 6) --> 2, (21, 7) --> 2, (21, 8) --> 0, (21, 9) --> 0,
                 (21, 10) --> 2, (21, 11) --> 0, (21, 12) --> 2, (21, 13) --> 1, (21, 14) --> 0, (21, 15) --> 2,
                 (21, 16) --> 0, (21, 17) --> 0, (21, 18) --> 1, (21, 19) --> 0, (21, 20) --> 2, (21, 21) --> 0,
                 (21, 22) --> 2, (21, 23) --> 1, (21, 24) --> 2, (21, 25) --> 2, (21, 26) --> 0, (21, 27) --> 2,
                 (21, 28) --> 1, (21, 29) --> 2, (22, 1) --> 2, (22, 2) --> 2, (22, 3) --> 0, (22, 4) --> 0,
                 (22, 5) --> 1, (22, 6) --> 2, (22, 7) --> 1, (22, 8) --> 2, (22, 9) --> 1, (22, 10) --> 1,
                 (22, 11) --> 0, (22, 12) --> 1, (22, 13) --> 2, (22, 14) --> 0, (22, 15) --> 1, (22, 16) --> 2,
                 (22, 17) --> 2, (22, 18) --> 0, (22, 19) --> 1, (22, 20) --> 0, (22, 21) --> 2, (22, 22) --> 0,
                 (22, 23) --> 1, (22, 24) --> 1, (22, 25) --> 0, (22, 26) --> 1, (22, 27) --> 1, (22, 28) --> 0,
                 (22, 29) --> 1, (23, 1) --> 0, (23, 2) --> 0, (23, 3) --> 0, (23, 4) --> 1, (23, 5) --> 1,
                 (23, 6) --> 0, (23, 7) --> 0, (23, 8) --> 1, (23, 9) --> 1, (23, 10) --> 2, (23, 11) --> 0,
                 (23, 12) --> 0, (23, 13) --> 1, (23, 14) --> 2, (23, 15) --> 0, (23, 16) --> 0, (23, 17) --> 0,
                 (23, 18) --> 2, (23, 19) --> 1, (23, 20) --> 0, (23, 21) --> 1, (23, 22) --> 1, (23, 23) --> 0,
                 (23, 24) --> 2, (23, 25) --> 2, (23, 26) --> 0, (23, 27) --> 1, (23, 28) --> 0, (23, 29) --> 2,
                 (24, 1) --> 0, (24, 2) --> 2, (24, 3) --> 2, (24, 4) --> 2, (24, 5) --> 1, (24, 6) --> 2,
                 (24, 7) --> 2, (24, 8) --> 2, (24, 9) --> 2, (24, 10) --> 0, (24, 11) --> 2, (24, 12) --> 0,
                 (24, 13) --> 0, (24, 14) --> 1, (24, 15) --> 2, (24, 16) --> 2, (24, 17) --> 0, (24, 18) --> 2,
                 (24, 19) --> 2, (24, 20) --> 0, (24, 21) --> 2, (24, 22) --> 1, (24, 23) --> 2, (24, 24) --> 0,
                 (24, 25) --> 1, (24, 26) --> 0, (24, 27) --> 0, (24, 28) --> 2, (24, 29) --> 1, (25, 1) --> 0,
                 (25, 2) --> 2, (25, 3) --> 0, (25, 4) --> 0, (25, 5) --> 2, (25, 6) --> 0, (25, 7) --> 2,
                 (25, 8) --> 2, (25, 9) --> 2, (25, 10) --> 2, (25, 11) --> 1, (25, 12) --> 2, (25, 13) --> 0,
                 (25, 14) --> 0, (25, 15) --> 2, (25, 16) --> 1, (25, 17) --> 2, (25, 18) --> 2, (25, 19) --> 1,
                 (25, 20) --> 2, (25, 21) --> 2, (25, 22) --> 0, (25, 23) --> 2, (25, 24) --> 1, (25, 25) --> 0,
                 (25, 26) --> 0, (25, 27) --> 0, (25, 28) --> 1, (25, 29) --> 0, (26, 1) --> 0, (26, 2) --> 1,
                 (26, 3) --> 0, (26, 4) --> 0, (26, 5) --> 2, (26, 6) --> 0, (26, 7) --> 1, (26, 8) --> 2,
                 (26, 9) --> 2, (26, 10) --> 0, (26, 11) --> 1, (26, 12) --> 0, (26, 13) --> 1, (26, 14) --> 2,
                 (26, 15) --> 2, (26, 16) --> 1, (26, 17) --> 1, (26, 18) --> 2, (26, 19) --> 0, (26, 20) --> 1,
                 (26, 21) --> 0, (26, 22) --> 1, (26, 23) --> 0, (26, 24) --> 0, (26, 25) --> 0, (26, 26) --> 0,
                 (26, 27) --> 2, (26, 28) --> 1, (26, 29) --> 0, (27, 1) --> 1, (27, 2) --> 2, (27, 3) --> 0,
                 (27, 4) --> 1, (27, 5) --> 0, (27, 6) --> 2, (27, 7) --> 0, (27, 8) --> 2, (27, 9) --> 0,
                 (27, 10) --> 0, (27, 11) --> 1, (27, 12) --> 0, (27, 13) --> 0, (27, 14) --> 0, (27, 15) --> 2,
                 (27, 16) --> 0, (27, 17) --> 2, (27, 18) --> 1, (27, 19) --> 1, (27, 20) --> 0, (27, 21) --> 2,
                 (27, 22) --> 1, (27, 23) --> 1, (27, 24) --> 0, (27, 25) --> 0, (27, 26) --> 2, (27, 27) --> 0,
                 (27, 28) --> 2, (27, 29) --> 0, (28, 1) --> 0, (28, 2) --> 1, (28, 3) --> 1, (28, 4) --> 0,
                 (28, 5) --> 1, (28, 6) --> 2, (28, 7) --> 0, (28, 8) --> 2, (28, 9) --> 2, (28, 10) --> 2,
                 (28, 11) --> 2, (28, 12) --> 2, (28, 13) --> 2, (28, 14) --> 2, (28, 15) --> 0, (28, 16) --> 0,
                 (28, 17) --> 2, (28, 18) --> 1, (28, 19) --> 2, (28, 20) --> 0, (28, 21) --> 1, (28, 22) --> 0,
                 (28, 23) --> 0, (28, 24) --> 2, (28, 25) --> 1, (28, 26) --> 1, (28, 27) --> 2, (28, 28) --> 0,
                 (28, 29) --> 2, (29, 1) --> 1, (29, 2) --> 0, (29, 3) --> 1, (29, 4) --> 0, (29, 5) --> 0,
                 (29, 6) --> 0, (29, 7) --> 0, (29, 8) --> 0, (29, 9) --> 2, (29, 10) --> 1, (29, 11) --> 2,
                 (29, 12) --> 0, (29, 13) --> 2, (29, 14) --> 2, (29, 15) --> 2, (29, 16) --> 2, (29, 17) --> 0,
                 (29, 18) --> 1, (29, 19) --> 2, (29, 20) --> 1, (29, 21) --> 2, (29, 22) --> 1, (29, 23) --> 2,
                 (29, 24) --> 1, (29, 25) --> 0, (29, 26) --> 0, (29, 27) --> 0, (29, 28) --> 2, (29, 29) --> 0)
letting maxDist be 2
letting minDist be 4
letting nbCharacter be 29
letting numOfCodeWords be 20
